; PUSH cw_4 DUP4 SWAP1 DUP1 PUSH cw_3 DUP2 => DUP3 PUSH cw_4 DUP1 PUSH cw_3 PUSH cw_4
(set-option :produce-proofs true)
; 
(set-info :status unknown)
(declare-fun storage_t ((_ BitVec 256) (_ BitVec 256) (_ BitVec 256) (_ BitVec 256) (_ BitVec 256) Int (_ BitVec 256)) (_ BitVec 256))
(declare-fun w_3 () (_ BitVec 256))
(declare-fun w_4 () (_ BitVec 256))
(declare-fun storage_s ((_ BitVec 256) (_ BitVec 256) (_ BitVec 256) (_ BitVec 256) (_ BitVec 256) Int (_ BitVec 256)) (_ BitVec 256))
(declare-fun exc_halt_t (Int) Bool)
(declare-fun exc_halt_s (Int) Bool)
(declare-fun stack_t ((_ BitVec 256) (_ BitVec 256) (_ BitVec 256) (_ BitVec 256) (_ BitVec 256) Int (_ BitVec 6)) (_ BitVec 256))
(declare-fun stack_s ((_ BitVec 256) (_ BitVec 256) (_ BitVec 256) (_ BitVec 256) (_ BitVec 256) Int (_ BitVec 6)) (_ BitVec 256))
(declare-fun sc_t (Int) (_ BitVec 6))
(declare-fun sc_s (Int) (_ BitVec 6))
(declare-fun used_gas_t ((_ BitVec 256) (_ BitVec 256) (_ BitVec 256) (_ BitVec 256) (_ BitVec 256) Int) Int)
(declare-fun used_gas_s ((_ BitVec 256) (_ BitVec 256) (_ BitVec 256) (_ BitVec 256) (_ BitVec 256) Int) Int)
(assert
 (exists ((x_0 (_ BitVec 256)) (x_1 (_ BitVec 256)) (x_2 (_ BitVec 256)) )(let (($x3942 (forall ((w (_ BitVec 256)) )(let ((?x7076 (storage_t x_0 x_1 x_2 w_4 w_3 5 w)))
 (let ((?x2823 (storage_s x_0 x_1 x_2 w_4 w_3 6 w)))
 (= ?x2823 ?x7076))))
 ))
 (let (($x10311 (exc_halt_t 5)))
 (let (($x7121 (exc_halt_s 6)))
 (let (($x9044 (= $x7121 $x10311)))
 (let (($x7036 (forall ((n (_ BitVec 6)) )(let ((?x8428 (stack_t x_0 x_1 x_2 w_4 w_3 5 n)))
 (let ((?x5171 (stack_s x_0 x_1 x_2 w_4 w_3 6 n)))
 (let (($x9783 (= ?x5171 ?x8428)))
 (or (bvsle (sc_t 5) n) $x9783)))))
 ))
 (let ((?x10036 (sc_t 5)))
 (let ((?x9114 (sc_s 6)))
 (let (($x8483 (= ?x9114 ?x10036)))
 (let ((?x9702 (used_gas_t x_0 x_1 x_2 w_4 w_3 0)))
 (let ((?x1943 (used_gas_s x_0 x_1 x_2 w_4 w_3 0)))
 (let (($x8324 (= ?x1943 ?x9702)))
 (let (($x5328 (forall ((w (_ BitVec 256)) )(let ((?x7831 (storage_t x_0 x_1 x_2 w_4 w_3 0 w)))
 (let ((?x10176 (storage_s x_0 x_1 x_2 w_4 w_3 0 w)))
 (= ?x10176 ?x7831))))
 ))
 (let (($x56 (exc_halt_t 0)))
 (let (($x57 (exc_halt_s 0)))
 (let (($x58 (= $x57 $x56)))
 (let (($x2131 (forall ((n (_ BitVec 6)) )(let ((?x63 (sc_t 0)))
 (let (($x9079 (bvsle ?x63 n)))
 (let ((?x9883 (stack_t x_0 x_1 x_2 w_4 w_3 0 n)))
 (let ((?x10722 (stack_s x_0 x_1 x_2 w_4 w_3 0 n)))
 (let (($x6787 (= ?x10722 ?x9883)))
 (or $x6787 $x9079)))))))
 ))
 (let ((?x63 (sc_t 0)))
 (let ((?x72 (sc_s 0)))
 (let (($x73 (= ?x72 ?x63)))
 (let (($x7854 (exc_halt_t 4)))
 (let (($x2575 (or $x7854 (not (= ((_ extract 6 6) (bvadd (_ bv1 7) (concat (_ bv0 1) (sc_t 4)))) (_ bv0 1))))))
 (let (($x874 (forall ((w (_ BitVec 256)) )(let ((?x10931 (storage_t x_0 x_1 x_2 w_4 w_3 4 w)))
 (let ((?x7076 (storage_t x_0 x_1 x_2 w_4 w_3 5 w)))
 (= ?x7076 ?x10931))))
 ))
 (let (($x8643 (forall ((n (_ BitVec 6)) )(let ((?x7291 (stack_t x_0 x_1 x_2 w_4 w_3 4 n)))
 (let ((?x8428 (stack_t x_0 x_1 x_2 w_4 w_3 5 n)))
 (let ((?x7495 (sc_t 4)))
 (let (($x3509 (bvsle ?x7495 n)))
 (or $x3509 (= ?x8428 ?x7291)))))))
 ))
 (let (($x2548 (= (used_gas_t x_0 x_1 x_2 w_4 w_3 5) (+ 3 (used_gas_t x_0 x_1 x_2 w_4 w_3 4)))))
 (let (($x9131 (exc_halt_t 3)))
 (let (($x1565 (or $x9131 (not (= ((_ extract 6 6) (bvadd (_ bv1 7) (concat (_ bv0 1) (sc_t 3)))) (_ bv0 1))))))
 (let (($x4304 (= $x7854 $x1565)))
 (let (($x5388 (forall ((w (_ BitVec 256)) )(let ((?x11842 (storage_t x_0 x_1 x_2 w_4 w_3 3 w)))
 (let ((?x10931 (storage_t x_0 x_1 x_2 w_4 w_3 4 w)))
 (= ?x10931 ?x11842))))
 ))
 (let (($x11117 (forall ((n (_ BitVec 6)) )(let ((?x8414 (stack_t x_0 x_1 x_2 w_4 w_3 3 n)))
 (let ((?x7291 (stack_t x_0 x_1 x_2 w_4 w_3 4 n)))
 (let ((?x10013 (sc_t 3)))
 (let (($x2843 (bvsle ?x10013 n)))
 (or $x2843 (= ?x7291 ?x8414)))))))
 ))
 (let ((?x7495 (sc_t 4)))
 (let (($x7253 (= ?x7495 (bvadd (_ bv1 6) (sc_t 3)))))
 (let ((?x419 (used_gas_t x_0 x_1 x_2 w_4 w_3 4)))
 (let (($x4057 (exc_halt_t 2)))
 (let (($x2348 (not (bvsle (_ bv0 6) (bvadd (_ bv63 6) (sc_t 2))))))
 (let (($x2960 (or $x2348 $x4057 (not (= ((_ extract 6 6) (bvadd (_ bv1 7) (concat (_ bv0 1) (sc_t 2)))) (_ bv0 1))))))
 (let (($x9610 (forall ((w (_ BitVec 256)) )(let ((?x1372 (storage_t x_0 x_1 x_2 w_4 w_3 2 w)))
 (let ((?x11842 (storage_t x_0 x_1 x_2 w_4 w_3 3 w)))
 (= ?x11842 ?x1372))))
 ))
 (let (($x7848 (forall ((n (_ BitVec 6)) )(let ((?x11248 (sc_t 2)))
 (let ((?x4064 (bvadd (_ bv63 6) ?x11248)))
 (let (($x8681 (bvsle ?x4064 n)))
 (let ((?x10752 (stack_t x_0 x_1 x_2 w_4 w_3 2 n)))
 (let ((?x8414 (stack_t x_0 x_1 x_2 w_4 w_3 3 n)))
 (or (= ?x8414 ?x10752) $x8681)))))))
 ))
 (let ((?x8343 (used_gas_t x_0 x_1 x_2 w_4 w_3 3)))
 (let ((?x11248 (sc_t 2)))
 (let ((?x4064 (bvadd (_ bv63 6) ?x11248)))
 (let ((?x11237 (stack_t x_0 x_1 x_2 w_4 w_3 2 ?x4064)))
 (let (($x5852 (= (stack_t x_0 x_1 x_2 w_4 w_3 3 (bvadd (_ bv63 6) (sc_t 3))) ?x11237)))
 (let (($x4852 (exc_halt_t 1)))
 (let (($x8809 (or $x4852 (not (= ((_ extract 6 6) (bvadd (_ bv1 7) (concat (_ bv0 1) (sc_t 1)))) (_ bv0 1))))))
 (let (($x4116 (= $x4057 $x8809)))
 (let (($x8872 (forall ((w (_ BitVec 256)) )(let ((?x5293 (storage_t x_0 x_1 x_2 w_4 w_3 1 w)))
 (let ((?x1372 (storage_t x_0 x_1 x_2 w_4 w_3 2 w)))
 (= ?x1372 ?x5293))))
 ))
 (let (($x2522 (forall ((n (_ BitVec 6)) )(let ((?x6997 (stack_t x_0 x_1 x_2 w_4 w_3 1 n)))
 (let ((?x10752 (stack_t x_0 x_1 x_2 w_4 w_3 2 n)))
 (let ((?x9666 (sc_t 1)))
 (let (($x9963 (bvsle ?x9666 n)))
 (or $x9963 (= ?x10752 ?x6997)))))))
 ))
 (let (($x11433 (= ?x11248 (bvadd (_ bv1 6) (sc_t 1)))))
 (let ((?x11554 (used_gas_t x_0 x_1 x_2 w_4 w_3 2)))
 (let (($x9117 (not (= ((_ extract 6 6) (bvadd (_ bv1 7) (concat (_ bv0 1) ?x63))) (_ bv0 1)))))
 (let (($x5220 (forall ((w (_ BitVec 256)) )(let ((?x7831 (storage_t x_0 x_1 x_2 w_4 w_3 0 w)))
 (let ((?x5293 (storage_t x_0 x_1 x_2 w_4 w_3 1 w)))
 (= ?x5293 ?x7831))))
 ))
 (let (($x10044 (forall ((n (_ BitVec 6)) )(let ((?x9883 (stack_t x_0 x_1 x_2 w_4 w_3 0 n)))
 (let ((?x6997 (stack_t x_0 x_1 x_2 w_4 w_3 1 n)))
 (or (= ?x6997 ?x9883) (bvsle (bvadd (_ bv61 6) (sc_t 0)) n)))))
 ))
 (let ((?x9666 (sc_t 1)))
 (let (($x9898 (= ?x9666 (bvadd (_ bv1 6) ?x63))))
 (let (($x10560 (= (stack_t x_0 x_1 x_2 w_4 w_3 1 (bvadd (_ bv63 6) ?x63)) (stack_t x_0 x_1 x_2 w_4 w_3 0 (bvadd (_ bv63 6) ?x63)))))
 (let (($x6429 (= (stack_t x_0 x_1 x_2 w_4 w_3 1 (bvadd (_ bv62 6) ?x63)) (stack_t x_0 x_1 x_2 w_4 w_3 0 (bvadd (_ bv62 6) ?x63)))))
 (let ((?x11839 (bvadd (_ bv61 6) ?x63)))
 (let ((?x1546 (stack_t x_0 x_1 x_2 w_4 w_3 0 ?x11839)))
 (let (($x1532 (= (stack_t x_0 x_1 x_2 w_4 w_3 1 (bvadd (_ bv63 6) ?x9666)) ?x1546)))
 (let (($x1862 (exc_halt_s 5)))
 (let (($x1319 (or (not (bvsle (_ bv0 6) (bvadd (_ bv62 6) (sc_s 5)))) $x1862 (not (= ((_ extract 6 6) (bvadd (_ bv1 7) (concat (_ bv0 1) (sc_s 5)))) (_ bv0 1))))))
 (let (($x5381 (forall ((w (_ BitVec 256)) )(let ((?x7564 (storage_s x_0 x_1 x_2 w_4 w_3 5 w)))
 (let ((?x2823 (storage_s x_0 x_1 x_2 w_4 w_3 6 w)))
 (= ?x2823 ?x7564))))
 ))
 (let (($x1796 (forall ((n (_ BitVec 6)) )(let ((?x7058 (stack_s x_0 x_1 x_2 w_4 w_3 5 n)))
 (let ((?x5171 (stack_s x_0 x_1 x_2 w_4 w_3 6 n)))
 (or (bvsle (bvadd (_ bv62 6) (sc_s 5)) n) (= ?x5171 ?x7058)))))
 ))
 (let (($x5677 (= (used_gas_s x_0 x_1 x_2 w_4 w_3 6) (+ 3 (used_gas_s x_0 x_1 x_2 w_4 w_3 5)))))
 (let (($x9042 (= (stack_s x_0 x_1 x_2 w_4 w_3 6 (bvadd (_ bv63 6) (sc_s 5))) (stack_s x_0 x_1 x_2 w_4 w_3 5 (bvadd (_ bv63 6) (sc_s 5))))))
 (let ((?x4319 (sc_s 5)))
 (let ((?x6485 (bvadd (_ bv62 6) ?x4319)))
 (let ((?x3944 (stack_s x_0 x_1 x_2 w_4 w_3 5 ?x6485)))
 (let (($x7156 (= (stack_s x_0 x_1 x_2 w_4 w_3 6 (bvadd (_ bv63 6) ?x9114)) ?x3944)))
 (let (($x9175 (exc_halt_s 4)))
 (let (($x3764 (or $x9175 (not (= ((_ extract 6 6) (bvadd (_ bv1 7) (concat (_ bv0 1) (sc_s 4)))) (_ bv0 1))))))
 (let (($x7786 (forall ((w (_ BitVec 256)) )(let ((?x1594 (storage_s x_0 x_1 x_2 w_4 w_3 4 w)))
 (let ((?x7564 (storage_s x_0 x_1 x_2 w_4 w_3 5 w)))
 (= ?x7564 ?x1594))))
 ))
 (let (($x6119 (forall ((n (_ BitVec 6)) )(let ((?x6823 (stack_s x_0 x_1 x_2 w_4 w_3 4 n)))
 (let ((?x7058 (stack_s x_0 x_1 x_2 w_4 w_3 5 n)))
 (or (bvsle (sc_s 4) n) (= ?x7058 ?x6823)))))
 ))
 (let ((?x10617 (used_gas_s x_0 x_1 x_2 w_4 w_3 5)))
 (let (($x8413 (not (= ((_ extract 6 6) (bvadd (_ bv1 7) (concat (_ bv0 1) (sc_s 3)))) (_ bv0 1)))))
 (let (($x8103 (exc_halt_s 3)))
 (let (($x3924 (forall ((w (_ BitVec 256)) )(let ((?x10925 (storage_s x_0 x_1 x_2 w_4 w_3 3 w)))
 (let ((?x1594 (storage_s x_0 x_1 x_2 w_4 w_3 4 w)))
 (= ?x1594 ?x10925))))
 ))
 (let (($x10727 (forall ((n (_ BitVec 6)) )(let ((?x3175 (stack_s x_0 x_1 x_2 w_4 w_3 3 n)))
 (let ((?x6823 (stack_s x_0 x_1 x_2 w_4 w_3 4 n)))
 (or (= ?x6823 ?x3175) (bvsle (bvadd (_ bv63 6) (sc_s 3)) n)))))
 ))
 (let ((?x9433 (sc_s 4)))
 (let (($x11964 (= ?x9433 (bvadd (_ bv1 6) (sc_s 3)))))
 (let ((?x11463 (used_gas_s x_0 x_1 x_2 w_4 w_3 4)))
 (let ((?x3851 (sc_s 3)))
 (let ((?x998 (bvadd (_ bv63 6) ?x3851)))
 (let ((?x10808 (stack_s x_0 x_1 x_2 w_4 w_3 3 ?x998)))
 (let (($x601 (= (stack_s x_0 x_1 x_2 w_4 w_3 4 (bvadd (_ bv63 6) ?x9433)) ?x10808)))
 (let (($x7113 (= $x8103 (or (exc_halt_s 2) (not (bvsle (_ bv0 6) (bvadd (_ bv62 6) (sc_s 2))))))))
 (let (($x10591 (forall ((w (_ BitVec 256)) )(let ((?x8892 (storage_s x_0 x_1 x_2 w_4 w_3 2 w)))
 (let ((?x10925 (storage_s x_0 x_1 x_2 w_4 w_3 3 w)))
 (= ?x10925 ?x8892))))
 ))
 (let (($x9381 (forall ((n (_ BitVec 6)) )(let ((?x570 (stack_s x_0 x_1 x_2 w_4 w_3 2 n)))
 (let ((?x3175 (stack_s x_0 x_1 x_2 w_4 w_3 3 n)))
 (or (bvsle (bvadd (_ bv62 6) (sc_s 2)) n) (= ?x3175 ?x570)))))
 ))
 (let ((?x2272 (sc_s 2)))
 (let (($x10118 (= ?x3851 ?x2272)))
 (let ((?x780 (used_gas_s x_0 x_1 x_2 w_4 w_3 3)))
 (let ((?x5528 (bvadd (_ bv63 6) ?x2272)))
 (let ((?x10748 (stack_s x_0 x_1 x_2 w_4 w_3 2 ?x5528)))
 (let (($x24 (= (stack_s x_0 x_1 x_2 w_4 w_3 3 (bvadd (_ bv62 6) ?x3851)) ?x10748)))
 (let (($x9246 (= ?x10808 (stack_s x_0 x_1 x_2 w_4 w_3 2 (bvadd (_ bv62 6) ?x2272)))))
 (let (($x8780 (exc_halt_s 1)))
 (let (($x186 (not (= ((_ extract 6 6) (bvadd (_ bv1 7) (concat (_ bv0 1) (sc_s 1)))) (_ bv0 1)))))
 (let (($x10052 (exc_halt_s 2)))
 (let (($x11346 (forall ((w (_ BitVec 256)) )(let ((?x10513 (storage_s x_0 x_1 x_2 w_4 w_3 1 w)))
 (let ((?x8892 (storage_s x_0 x_1 x_2 w_4 w_3 2 w)))
 (= ?x8892 ?x10513))))
 ))
 (let (($x9584 (forall ((n (_ BitVec 6)) )(let ((?x9842 (stack_s x_0 x_1 x_2 w_4 w_3 1 n)))
 (let ((?x570 (stack_s x_0 x_1 x_2 w_4 w_3 2 n)))
 (or (bvsle (bvadd (_ bv60 6) (sc_s 1)) n) (= ?x570 ?x9842)))))
 ))
 (let (($x2595 (= ?x2272 (bvadd (_ bv1 6) (sc_s 1)))))
 (let ((?x814 (used_gas_s x_0 x_1 x_2 w_4 w_3 2)))
 (let (($x3023 (= (stack_s x_0 x_1 x_2 w_4 w_3 2 (bvadd (_ bv63 6) (sc_s 1))) (stack_s x_0 x_1 x_2 w_4 w_3 1 (bvadd (_ bv63 6) (sc_s 1))))))
 (let (($x10223 (= (stack_s x_0 x_1 x_2 w_4 w_3 2 (bvadd (_ bv62 6) (sc_s 1))) (stack_s x_0 x_1 x_2 w_4 w_3 1 (bvadd (_ bv62 6) (sc_s 1))))))
 (let (($x5141 (= (stack_s x_0 x_1 x_2 w_4 w_3 2 (bvadd (_ bv61 6) (sc_s 1))) (stack_s x_0 x_1 x_2 w_4 w_3 1 (bvadd (_ bv61 6) (sc_s 1))))))
 (let ((?x154 (sc_s 1)))
 (let ((?x5777 (bvadd (_ bv60 6) ?x154)))
 (let ((?x7090 (stack_s x_0 x_1 x_2 w_4 w_3 1 ?x5777)))
 (let (($x5465 (= $x8780 (or $x57 (not (= ((_ extract 6 6) (bvadd (_ bv1 7) (concat (_ bv0 1) ?x72))) (_ bv0 1)))))))
 (let (($x8159 (forall ((w (_ BitVec 256)) )(let ((?x10176 (storage_s x_0 x_1 x_2 w_4 w_3 0 w)))
 (let ((?x10513 (storage_s x_0 x_1 x_2 w_4 w_3 1 w)))
 (= ?x10513 ?x10176))))
 ))
 (let (($x773 (forall ((n (_ BitVec 6)) )(let ((?x10722 (stack_s x_0 x_1 x_2 w_4 w_3 0 n)))
 (let ((?x9842 (stack_s x_0 x_1 x_2 w_4 w_3 1 n)))
 (let ((?x72 (sc_s 0)))
 (let (($x4347 (bvsle ?x72 n)))
 (or $x4347 (= ?x9842 ?x10722)))))))
 ))
 (let (($x10888 (= ?x154 (bvadd (_ bv1 6) ?x72))))
 (let (($x7038 (forall ((w (_ BitVec 256)) )(let ((?x10176 (storage_s x_0 x_1 x_2 w_4 w_3 0 w)))
 (= ?x10176 (_ bv0 256))))
 ))
 (let (($x2095 (= ?x1943 0)))
 (let (($x10995 (not $x57)))
 (let (($x7099 (= (stack_s x_0 x_1 x_2 w_4 w_3 0 (_ bv2 6)) x_2)))
 (let (($x11297 (= (stack_s x_0 x_1 x_2 w_4 w_3 0 (_ bv1 6)) x_1)))
 (let (($x3301 (= (stack_s x_0 x_1 x_2 w_4 w_3 0 (_ bv0 6)) x_0)))
 (let (($x9108 (= ?x72 (_ bv3 6))))
 (and $x9108 $x3301 $x11297 $x7099 $x10995 $x2095 $x7038 (= (stack_s x_0 x_1 x_2 w_4 w_3 1 ?x72) w_4) (= (used_gas_s x_0 x_1 x_2 w_4 w_3 1) (+ 3 ?x1943)) $x10888 $x773 $x8159 $x5465 (= ?x10748 ?x7090) (= (stack_s x_0 x_1 x_2 w_4 w_3 2 ?x5777) ?x7090) $x5141 $x10223 $x3023 (= ?x814 (+ 3 (used_gas_s x_0 x_1 x_2 w_4 w_3 1))) $x2595 $x9584 $x11346 (= $x10052 (or $x186 (not (bvsle (_ bv0 6) ?x5777)) $x8780)) $x9246 $x24 (= ?x780 (+ 3 ?x814)) $x10118 $x9381 $x10591 $x7113 $x601 (= (stack_s x_0 x_1 x_2 w_4 w_3 4 ?x998) ?x10808) (= ?x11463 (+ 3 ?x780)) $x11964 $x10727 $x3924 (= $x9175 (or (not (bvsle (_ bv0 6) ?x998)) $x8103 $x8413)) (= (stack_s x_0 x_1 x_2 w_4 w_3 5 ?x9433) w_3) (= ?x10617 (+ 3 ?x11463)) (= ?x4319 (bvadd (_ bv1 6) ?x9433)) $x6119 $x7786 (= $x1862 $x3764) $x7156 (= (stack_s x_0 x_1 x_2 w_4 w_3 6 ?x6485) ?x3944) $x9042 $x5677 (= ?x9114 (bvadd (_ bv1 6) ?x4319)) $x1796 $x5381 (= $x7121 $x1319) $x1532 (= (stack_t x_0 x_1 x_2 w_4 w_3 1 ?x11839) ?x1546) $x6429 $x10560 (= (used_gas_t x_0 x_1 x_2 w_4 w_3 1) (+ 3 ?x9702)) $x9898 $x10044 $x5220 (= $x4852 (or $x56 (not (bvsle (_ bv0 6) ?x11839)) $x9117)) (= (stack_t x_0 x_1 x_2 w_4 w_3 2 ?x9666) w_4) (= ?x11554 (+ 3 (used_gas_t x_0 x_1 x_2 w_4 w_3 1))) $x11433 $x2522 $x8872 $x4116 $x5852 (= (stack_t x_0 x_1 x_2 w_4 w_3 3 ?x4064) ?x11237) (= ?x8343 (+ 3 ?x11554)) (= (sc_t 3) (bvadd (_ bv1 6) ?x11248)) $x7848 $x9610 (= $x9131 $x2960) (= (stack_t x_0 x_1 x_2 w_4 w_3 4 (sc_t 3)) w_3) (= ?x419 (+ 3 ?x8343)) $x7253 $x11117 $x5388 $x4304 (= (stack_t x_0 x_1 x_2 w_4 w_3 5 ?x7495) w_4) $x2548 (= ?x10036 (bvadd (_ bv1 6) ?x7495)) $x8643 $x874 (= $x10311 $x2575) $x73 $x2131 $x58 $x5328 $x8324 (not (and $x8483 $x7036 $x9044 $x3942)))))))))))))))))))))))))))))))))))))))))))))))))))))))))))))))))))))))))))))))))))))))))))))))))))))))))))))))))))))))))))
 )
(check-sat)
(get-proof)
